\* Problem: Unknown *\

Minimize
 obj: - 199 x_2 - 399 x_3 - 599 x_4 - 799 x_5 - 1199 x_6 - 300 x_7
 - 500 x_8 - 700 x_9 - 900 x_10 - 1300 x_11 - 300 x_12 - 500 x_13
 - 700 x_14 - 1100 x_15 - 101 x_16 - 10100 x_17 - 300 x_18 - 700 x_19
 - 300 x_20 - 700 x_21 - 300 x_22 - 500 x_23 - 900 x_24 - 500 x_25
 - 300 x_26 - 400 x_27

Subject To
 r_1: + x_7 + x_2 - ~r_1 = 0
 r_2: + x_12 + x_8 + x_3 - ~r_2 = 0
 r_3: + x_22 + x_13 + x_9 + x_4 - ~r_3 = 0
 r_4: + x_23 + x_20 + x_18 + x_14 + x_10 + x_5 - ~r_4 = 0
 r_5: + x_27 + x_26 + x_25 + x_24 + x_21 + x_19 + x_15 + x_11 + x_6
 - ~r_5 = 0
 r_6: + x_6 + x_5 + x_4 + x_3 + x_2 + x_1 >= 0
 r_7: + x_16 >= 0
 r_8: + x_17 >= 0
 r_9: + x_24 + x_23 + x_21 + x_20 + x_19 + x_18 + x_15 + x_14 + x_11
 + x_10 + x_6 + x_5 >= 0
 r_10: + x_24 + x_23 + x_22 + x_15 + x_14 + x_13 + x_11 + x_10 + x_9
 + x_6 + x_5 + x_4 >= 0
 r_11: + x_25 + x_24 + x_21 + x_19 + x_15 + x_11 + x_6 >= 0
 r_12: + x_27 + x_26 + x_25 + x_24 + x_21 + x_19 + x_15 + x_11 + x_6
 >= 0
 r_13: + x_27 + x_25 + x_24 + x_21 + x_19 + x_15 + x_11 + x_6 >= 0
 r_14: + x_11 + x_10 + x_9 + x_8 + x_7 = 0.154465
 r_15: + x_15 + x_14 + x_13 + x_12 = 0.203789
 r_16: + x_16 = 538128
 r_17: + x_1 - ~r_17 = 0
 r_18: + x_17 = 1723.05792
 r_19: + x_19 + x_18 = 0.039402
 r_20: + x_21 + x_20 = 0.0689549
 r_21: + x_24 + x_23 + x_22 = 4828.7664
 r_22: + x_25 = 3276.78048
 r_23: + x_26 = 32761.4112
 r_24: + x_27 = 1854.6192
 r_25: + x_17 - ~r_25 = 0
 r_26: + x_15 + x_14 + x_13 + x_12 + x_11 + x_10 + x_9 + x_8 + x_6 + x_5
 + x_4 + x_3 >= 0
 r_27: + x_11 + x_10 + x_9 + x_8 + x_7 + x_6 + x_5 + x_4 + x_3 + x_2
 >= 0
 r_28: + x_15 + x_14 + x_13 + x_12 + x_11 + x_10 + x_9 + x_8 + x_6 + x_5
 + x_4 + x_3 >= 0
 r_29: + x_24 + x_23 + x_22 + x_15 + x_14 + x_13 + x_11 + x_10 + x_9
 + x_6 + x_5 + x_4 >= 0
 r_30: + x_24 + x_23 + x_21 + x_20 + x_19 + x_18 + x_15 + x_14 + x_11
 + x_10 + x_6 + x_5 >= 0
 r_31: + x_27 + x_26 + x_25 + x_24 + x_21 + x_19 + x_15 + x_11 + x_6
 >= 0
 r_32: + x_11 + x_10 + x_9 + x_8 + x_7 + x_6 + x_5 + x_4 + x_3 + x_2
 - ~r_32 = 0
 r_33: - x_6 - x_5 - x_4 - x_3 - x_2 - x_1 + x_16 - ~r_33
 = -857129.93782904

Bounds
 0 <= ~r_1 <= 0.259008
 0 <= ~r_2 <= 25675.92
 0 <= ~r_3 <= 165156.192
 0 <= ~r_4 <= 14508.5472
 0 <= ~r_5 <= 19951.5744
 0 <= ~r_17 <= 1529.92559806858
 0 <= ~r_25 <= 13200000
 0 <= ~r_32 <= 13200000
 0 <= ~r_33 <= 5662666.66666667

End
